NAME: renA15
TYPE: TSP
COMMENT: 15 random cities (seed : 1)
DIMENSION: 15
EDGE_WEIGHT_TYPE : EUC_2D
NODE_COORD_SECTION
1 985 588
2 847 313
3 254 904
4 434 606
5 978 748
6 569 473
7 317 263
8 562 234
9 592 262
10 596 189
11 376 332
12 310 99
13 674 959
14 298 153
15 437 302
EOF
